Linux optc-04-07 4.15.0-88-generic #88-Ubuntu SMP Tue Feb 11 20:11:34 UTC 2020 x86_64 x86_64 x86_64 GNU/Linux

top - 06:23:57 up 2 days, 16:59,  0 users,  load average: 0,44, 0,85, 0,95
Tasks: 467 gesamt,   1 laufend, 235 schlafend,   0 gestoppt,   0 Zombie
%CPU(s): 16,4 be,  4,1 sy,  0,0 ni, 79,5 un,  0,0 wa,  0,0 hi,  0,0 si,  0,0 st
KiB Spch : 65916192 gesamt, 62635932 frei,   718828 belegt,  2561432 Puff/Cache
KiB Swap:  8388604 gesamt,  8388604 frei,        0 belegt. 64622556 verfü Spch 

  PID USER      PR  NI    VIRT    RES    SHR S  %CPU %MEM     ZEIT+ BEFEHL
30512 bzfhende  20   0   52808   4400   3456 R  11,8  0,0   0:00.03 top
    1 root      20   0  233628   9196   6668 S   0,0  0,0   0:17.30 systemd
    2 root      20   0       0      0      0 S   0,0  0,0   0:00.27 kthreadd
    4 root       0 -20       0      0      0 I   0,0  0,0   0:00.00 kworker/0:+
    5 root      20   0       0      0      0 I   0,0  0,0   0:42.63 kworker/u9+
    7 root       0 -20       0      0      0 I   0,0  0,0   0:00.00 mm_percpu_+
    8 root      20   0       0      0      0 S   0,0  0,0   0:00.22 ksoftirqd/0
    9 root      20   0       0      0      0 I   0,0  0,0   0:46.01 rcu_sched

hard time limit: 00-04:10:00
hard mem limit: 38600

SLURM jobID: 6405104

@01 /nfs/OPTI/bzfhende/instances//./miplib2010_opm2/instances/opm2-z12-s5.mps.gz ===========
-----------------------------
So 8. Mär 06:23:57 CET 2020
-----------------------------
@03 1583645037
@05 7200
SCIP version 7.0.0 [precision: 8 byte] [memory: block] [mode: optimized] [LP solver: CPLEX 12.10.0.0] [GitHash: 297532de76]
Copyright (C) 2002-2020 Konrad-Zuse-Zentrum fuer Informationstechnik Berlin (ZIB)

External codes: 
  Readline 7.0         GNU library for command line editing (gnu.org/s/readline)
  CPLEX 12.10.0.0      Linear Programming Solver developed by IBM (www.cplex.com)
  CppAD 20180000.0     Algorithmic Differentiation of C++ algorithms developed by B. Bell (www.coin-or.org/CppAD)
  ZLIB 1.2.11          General purpose compression library by J. Gailly and M. Adler (zlib.net)
  GMP 6.1.2            GNU Multiple Precision Arithmetic Library developed by T. Granlund (gmplib.org)
  bliss 0.73p          Computing Graph Automorphism Groups by T. Junttila and P. Kaski (http://www.tcs.hut.fi/Software/bliss/)

user parameter file <scip.set> not found - using default parameters

SCIP> 
SCIP> set load /nfs/OPTI/bzfhende/scip-opti/check/../settings/periodic_report.sett
loaded parameter file </nfs/OPTI/bzfhende/scip-opti/check/../settings/periodic_report.set>
SCIP> set limits time 7200
limits/time = 7200
SCIP> set limits nodes 2100000000
limits/nodes = 2100000000
SCIP> set limits memory 35000
limits/memory = 35000
SCIP> set lp advanced threads 1
lp/threads = 1
SCIP> set timing clocktype 1
timing/clocktype = 1
SCIP> set display freq 10000
display/freq = 10000
SCIP> set memory savefac 1.0
memory/savefac = 1
SCIP> set save /nfs/OPTI/bzfhende/scip-opti/check/treesize.prediction.opm2/bzfhennde.instancegroups_opm2.85_opm2-z12-s5.scip.M620v2.periodic_report.set
saved parameter file </nfs/OPTI/bzfhende/scip-opti/check/treesize.prediction.opm2/bzfhende.instancegroups_opm2.85_opm2-z12-s5.scip.M620v2.periodic_report.set>
SCIP> read /nfs/OPTI/bzfhende/instances//./miplib2010_opm2/instances/opm2-z12-s5..mps.gz

read problem </nfs/OPTI/bzfhende/instances//./miplib2010_opm2/instances/opm2-z12-s5.mps.gz>
============

original problem has 10800 variables (10800 bin, 0 int, 0 impl, 0 cont) and 319508 constraints
SCIP> display parameters

number of parameters = 2603
non-default parameter settings:
display/freq = 10000
limits/time = 7200
limits/nodes = 2100000000
limits/memory = 35000
lp/threads = 1
memory/savefac = 1
timing/clocktype = 1
estimation/restarts/restartpolicy = n
estimation/restarts/restartlimit = 0
estimation/reportfreq = 100
estimation/treeprofile/enabled = TRUE

SCIP> optimize

feasible solution found by trivial heuristic after 0.3 seconds, objective value 0.000000e+00
presolving:
(round 1, fast)       403 del vars, 19171 del conss, 0 add conss, 0 chg bounds, 0 chg sides, 0 chg coeffs, 0 upgd conss, 0 impls, 300281 clqs
(round 2, fast)       414 del vars, 19998 del conss, 0 add conss, 0 chg bounds, 0 chg sides, 0 chg coeffs, 0 upgd conss, 0 impls, 299478 clqs
(round 3, exhaustive) 414 del vars, 20022 del conss, 0 add conss, 0 chg bounds, 0 chg sides, 0 chg coeffs, 299486 upgd conss, 0 impls, 299478 clqs
(round 4, fast)       448 del vars, 20824 del conss, 0 add conss, 0 chg bounds, 0 chg sides, 0 chg coeffs, 299486 upgd conss, 0 impls, 297768 clqs
(round 5, fast)       453 del vars, 21928 del conss, 0 add conss, 0 chg bounds, 0 chg sides, 0 chg coeffs, 299486 upgd conss, 0 impls, 297523 clqs
(round 6, medium)     459 del vars, 22222 del conss, 0 add conss, 0 chg bounds, 0 chg sides, 0 chg coeffs, 299486 upgd conss, 0 impls, 297229 clqs
   (58.5s) probing: 1000/10340 (9.7%) - 0 fixings, 0 aggregations, 343371 implications, 0 bound changes
   (58.5s) probing: 1001/10340 (9.7%) - 0 fixings, 0 aggregations, 343734 implications, 0 bound changes
   (58.5s) probing aborted: 1000/1000 successive useless probings
   (64.4s) symmetry computation started: requiring (bin +, int +, cont +), (fixed: bin -, int -, cont -)
   (64.8s) no symmetry present
presolving (7 rounds: 7 fast, 3 medium, 2 exhaustive):
 460 deleted vars, 22320 deleted constraints, 0 added constraints, 0 tightened bounds, 0 added holes, 0 changed sides, 0 changed coefficients
 0 implications, 640914 cliques
presolved problem has 10340 variables (10340 bin, 0 int, 0 impl, 0 cont) and 297188 constraints
      8 constraints of type <knapsack>
 297180 constraints of type <setppc>
transformed objective value is always integral (scale: 1)
Presolving Time: 64.58
transformed 1/1 original solutions to the transformed problem space

 time | node  | left  |LP iter|LP it/n|mem/heur|mdpt |vars |cons |rows |cuts |sepa|confs|strbr|  dualbound   | primalbound  |  gap   | compl. 
p67.2s|     1 |     0 |     0 |     - | vbounds|   0 |  10k| 297k| 297k|   0 |  0 |  10 |   0 |-9.444780e+05 |-3.320500e+04 |2744.38%| unknown
  160s|     1 |     0 | 58001 |     - |  2434M |   0 |  10k| 297k| 297k|   0 |  0 |  33 |   0 |-8.834092e+04 |-3.320500e+04 | 166.05%| unknown
r 163s|     1 |     0 | 58001 |     - |shifting|   0 |  10k| 297k| 297k|   0 |  0 |  35 |   0 |-8.834092e+04 |-3.580500e+04 | 146.73%| unknown
i 163s|     1 |     0 | 58001 |     - |  oneopt|   0 |  10k| 297k| 297k|   0 |  0 |  35 |   0 |-8.834092e+04 |-3.677200e+04 | 140.24%| unknown
d2049s|     1 |     0 |140386 |     - |farkasdi|   0 |  10k| 297k| 297k|   0 |  2 |  35 |   0 |-8.834092e+04 |-5.296700e+04 |  66.78%| unknown
 3370s|     1 |     0 |187709 |     - |  2551M |   0 |  10k| 297k| 297k|   0 |  2 | 111 |   0 |-8.834092e+04 |-5.296700e+04 |  66.78%| unknown
 3851s|     1 |     2 |187709 |     - |  2556M |   0 |  10k| 297k| 297k|   0 |  4 | 121 |  27 |-8.739134e+04 |-5.296700e+04 |  64.99%| unknown

SCIP Status        : solving was interrupted [time limit reached]
Solving Time (sec) : 7200.22
Solving Nodes      : 32
Primal Bound       : -5.29670000000000e+04 (5 solutions)
Dual Bound         : -8.60723367476797e+04
Gap                : 62.50 %

SCIP> display statistics

SCIP Status        : solving was interrupted [time limit reached]
Total Time         :    7200.99
  solving          :    7200.22
  presolving       :      64.58 (included in solving)
  reading          :       0.77
  copying          :       0.37 (1 #copies) (minimal 0.37, maximal 0.37, average 0.37)
Original Problem   :
  Problem name     : opm2-z12-s5
  Variables        : 10800 (10800 binary, 0 integer, 0 implicit integer, 0 continuous)
  Constraints      : 319508 initial, 319508 maximal
  Objective        : minimize, 10753 non-zeros (abs.min = 1, abs.max = 574)
Presolved Problem  :
  Problem name     : t_opm2-z12-s5
  Variables        : 10340 (10340 binary, 0 integer, 0 implicit integer, 0 continuous)
  Constraints      : 297188 initial, 297305 maximal
  Objective        : minimize, 10295 non-zeros (abs.min = 1, abs.max = 574)
  Nonzeros         : 677061 constraint, 1281844 clique table
Presolvers         :   ExecTime  SetupTime  Calls  FixedVars   AggrVars   ChgTypes  ChgBounds   AddHoles    DelCons    AddCons   ChgSides   ChgCoefs
  boundshift       :       0.00       0.00      0          0          0          0          0          0          0          0          0          0
  convertinttobin  :       0.00       0.00      0          0          0          0          0          0          0          0          0          0
  domcol           :       0.17       0.00      1          0          0          0          0          0          0          0          0          0
  dualagg          :       0.00       0.00      0          0          0          0          0          0          0          0          0          0
  dualcomp         :       0.00       0.00      0          0          0          0          0          0          0          0          0          0
  dualinfer        :       0.00       0.00      0          0          0          0          0          0          0          0          0          0
  dualsparsify     :       5.83       0.00      1          0          0          0          0          0          0          0          0          0
  gateextraction   :       0.00       0.00      0          0          0          0          0          0          0          0          0          0
  implics          :       0.00       0.00      3          0          0          0          0          0          0          0          0          0
  inttobinary      :       0.00       0.00      0          0          0          0          0          0          0          0          0          0
  qpkktref         :       0.00       0.00      0          0          0          0          0          0          0          0          0          0
  redvub           :       0.00       0.00      0          0          0          0          0          0          0          0          0          0
  sparsify         :       0.22       0.00      1          0          0          0          0          0          0          0          0          0
  stuffing         :       0.00       0.00      0          0          0          0          0          0          0          0          0          0
  trivial          :       0.00       0.00      7          0          0          0          0          0          0          0          0          0
  tworowbnd        :       0.20       0.00      1          0          0          0          0          0          0          0          0          0
  dualfix          :       0.00       0.00      7        406          0          0          0          0          0          0          0          0
  genvbounds       :       0.00       0.00      0          0          0          0          0          0          0          0          0          0
  probing          :      49.84       0.00      1          0          0          0          0          0          0          0          0          0
  pseudoobj        :       0.00       0.00      5          0          0          0          0          0          0          0          0          0
  symmetry         :       0.41       0.00      1          0          0          0          0          0          0          0          0          0
  vbounds          :       0.04       0.00      1          0          0          0          0          0          0          0          0          0
  knapsack         :       3.75       0.00      7          0          0          0          0          0          0          0          0          0
  setppc           :       1.25       0.02      7         42          0          0          0          0       2298          0          0          0
  linear           :       2.53       0.09      4          0         12          0          0          0      20022          0          0          0
  logicor          :       0.00       0.00      0          0          0          0          0          0          0          0          0          0
  benders          :       0.00       0.00      0          0          0          0          0          0          0          0          0          0
  components       :       0.09       0.00      1          0          0          0          0          0          0          0          0          0
  root node        :          -          -      -          0          -          -          0          -          -          -          -          -
Constraints        :     Number  MaxNumber  #Separate #Propagate    #EnfoLP    #EnfoRelax  #EnfoPS    #Check   #ResProp    Cutoffs    DomReds       Cuts    Applied      Conss   Children
  benderslp        :          0          0          0          0         32          0          0         13          0          0          0          0          0          0          0
  integral         :          0          0          0          0         32          0          0         13          0          0          7          0          0          5         60
  knapsack         :          8          8          2      28862          0          0          0          8        134         16          0          0          0          0          0
  setppc           :     297180+    297189          2      28836          0          0          0          5      34715          6       4671          0          0          0          0
  linear           :          0+         7          0       2757          0          0          0          0          0          0          0          0          0          0          0
  logicor          :          0+       109          2        321          0          0          0          0          0          0          0          0          0          0          0
  benders          :          0          0          0          0          0          0          0          7          0          0          0          0          0          0          0
  countsols        :          0          0          0          0          0          0          0          7          0          0          0          0          0          0          0
  components       :          0          0          0          0          0          0          0          0          0          0          0          0          0          0          0
Constraint Timings :  TotalTime  SetupTime   Separate  Propagate     EnfoLP     EnfoPS     EnfoRelax   Check    ResProp    SB-Prop
  benderslp        :       0.00       0.00       0.00       0.00       0.00       0.00       0.00       0.00       0.00       0.00
  integral         :    2782.52       0.00       0.00       0.00    2782.52       0.00       0.00       0.00       0.00       0.00
  knapsack         :      24.31       0.00      21.91       2.25       0.00       0.00       0.00       0.00       0.03       0.12
  setppc           :      14.20       0.02       0.15      12.35       0.00       0.00       0.00       0.07       0.01       1.60
  linear           :       0.11       0.09       0.00       0.00       0.00       0.00       0.00       0.00       0.00       0.02
  logicor          :       0.01       0.00       0.00       0.00       0.00       0.00       0.00       0.00       0.00       0.01
  benders          :       0.00       0.00       0.00       0.00       0.00       0.00       0.00       0.00       0.00       0.00
  countsols        :       0.00       0.00       0.00       0.00       0.00       0.00       0.00       0.00       0.00       0.00
  components       :       0.00       0.00       0.00       0.00       0.00       0.00       0.00       0.00       0.00       0.00
Propagators        : #Propagate   #ResProp    Cutoffs    DomReds
  dualfix          :          3          0          0          0
  genvbounds       :          0          0          0          0
  nlobbt           :          0          0          0          0
  obbt             :          0          0          0          0
  probing          :          0          0          0          0
  pseudoobj        :        224          0          0          0
  redcost          :         31          0          0          0
  rootredcost      :          1          0          0          0
  symmetry         :          0          0          0          0
  vbounds          :      20998          0          0          0
Propagator Timings :  TotalTime  SetupTime   Presolve  Propagate    ResProp    SB-Prop
  dualfix          :       0.00       0.00       0.00       0.00       0.00       0.00
  genvbounds       :       0.02       0.00       0.00       0.02       0.00       0.00
  nlobbt           :       0.00       0.00       0.00       0.00       0.00       0.00
  obbt             :       0.00       0.00       0.00       0.00       0.00       0.00
  probing          :      49.84       0.00      49.84       0.00       0.00       0.00
  pseudoobj        :       0.18       0.00       0.00       0.18       0.00       0.00
  redcost          :       0.01       0.00       0.00       0.01       0.00       0.00
  rootredcost      :       0.03       0.00       0.00       0.03       0.00       0.00
  symmetry         :       0.47       0.00       0.41       0.06       0.00       0.00
  vbounds          :       0.08       0.00       0.04       0.03       0.00       0.01
Conflict Analysis  :       Time      Calls    Success    DomReds  Conflicts   Literals    Reconvs ReconvLits   Dualrays   Nonzeros   LP Iters   (pool size: [10000,10000])
  propagation      :       0.18         19         19          -       1646     1260.3          0        0.0          -          -          -
  infeasible LP    :       0.00          0          0          -          0        0.0          0        0.0          0        0.0          0
  bound exceed. LP :       3.68          8          7          -        321      303.8          0        0.0          7     1021.3        160
  strong branching :       0.00          0          0          -          0        0.0          0        0.0          -          -          0
  pseudo solution  :       0.00          0          0          -          0        0.0          0        0.0          -          -          -
  applied globally :       0.02          -          -          0        123      417.5          -          -          7          -          -
  applied locally  :          -          -          -          0          0        0.0          -          -          0          -          -
Separators         :   ExecTime  SetupTime      Calls    Cutoffs    DomReds       Cuts    Applied      Conss
  cut pool         :       0.00                     0          -          -          0          -          -    (maximal pool size: 0)
  aggregation      :      41.32       0.00          3          0          0          0          0          0
  cgmip            :       0.00       0.00          0          0          0          0          0          0
  clique           :      12.00       0.00          2          0          0          0          0          0
  closecuts        :       0.00       0.00          0          0          0          0          0          0
  cmir             :       0.00       0.00          0          0          0          0          0          0
  convexproj       :       0.00       0.00          0          0          0          0          0          0
  disjunctive      :       0.00       0.00          0          0          0          0          0          0
  eccuts           :       0.00       0.00          0          0          0          0          0          0
  flowcover        :       0.00       0.00          0          0          0          0          0          0
  gauge            :       0.00       0.00          0          0          0          0          0          0
  gomory           :     247.79       0.00          3          0          0          0          0          0
  impliedbounds    :       0.06       0.00          3          0          0          0          0          0
  intobj           :       0.00       0.00          0          0          0          0          0          0
  mcf              :       0.24       0.00          1          0          0          0          0          0
  oddcycle         :       0.00       0.00          0          0          0          0          0          0
  rapidlearning    :       0.00       0.00          0          0          0          0          0          0
  strongcg         :      82.46       0.00          2          0          0          0          0          0
  zerohalf         :      60.52       0.00          3          0          0          0          0          0
Pricers            :   ExecTime  SetupTime      Calls       Vars
  problem variables:       0.00          -          0          0
Branching Rules    :   ExecTime  SetupTime   BranchLP  BranchExt   BranchPS    Cutoffs    DomReds       Cuts      Conss   Children
  allfullstrong    :       0.00       0.00          0          0          0          0          0          0          0          0
  cloud            :       0.00       0.00          0          0          0          0          0          0          0          0
  distribution     :       0.00       0.00          0          0          0          0          0          0          0          0
  fullstrong       :       0.00       0.00          0          0          0          0          0          0          0          0
  inference        :       0.00       0.00          0          0          0          0          0          0          0          0
  leastinf         :       0.00       0.00          0          0          0          0          0          0          0          0
  lookahead        :       0.00       0.00          0          0          0          0          0          0          0          0
  mostinf          :       0.00       0.00          0          0          0          0          0          0          0          0
  multaggr         :       0.00       0.00          0          0          0          0          0          0          0          0
  nodereopt        :       0.00       0.00          0          0          0          0          0          0          0          0
  pscost           :       0.00       0.00          0          0          0          0          0          0          0          0
  random           :       0.00       0.00          0          0          0          0          0          0          0          0
  relpscost        :    2782.52       0.00         32          0          0          0          7          0          9         60
  vanillafullstrong:       0.00       0.00          0          0          0          0          0          0          0          0
Primal Heuristics  :   ExecTime  SetupTime      Calls      Found       Best
  LP solutions     :       0.00          -          -          0          0
  relax solutions  :       0.00          -          -          0          0
  pseudo solutions :       0.00          -          -          0          0
  strong branching :       0.00          -          -          0          0
  actconsdiving    :       0.00       0.00          0          0          0
  adaptivediving   :       0.00       0.00          0          0          0
  alns             :       1.11       0.00          1          0          0
  bound            :       0.00       0.00          0          0          0
  clique           :       0.44       0.00          1          0          0
  coefdiving       :       0.00       0.00          0          0          0
  completesol      :       0.00       0.00          0          0          0
  conflictdiving   :     363.21       0.00          1          0          0
  crossover        :       0.00       0.00          0          0          0
  dins             :       0.00       0.00          0          0          0
  distributiondivin:       0.00       0.00          0          0          0
  dualval          :       0.00       0.00          0          0          0
  farkasdiving     :    1740.55       0.00          1          1          1
  feaspump         :     956.07       0.00          1          0          0
  fixandinfer      :       0.00       0.00          0          0          0
  fracdiving       :       0.00       0.00          0          0          0
  gins             :       0.00       0.00          0          0          0
  guideddiving     :       0.00       0.00          0          0          0
  indicator        :       0.00       0.00          0          0          0
  intdiving        :       0.00       0.00          0          0          0
  intshifting      :       0.00       0.00          0          0          0
  linesearchdiving :       0.00       0.00          0          0          0
  localbranching   :       0.00       0.00          0          0          0
  locks            :       0.61       0.00          1          0          0
  lpface           :       0.00       0.00          0          0          0
  mpec             :       0.00       0.00          0          0          0
  multistart       :       0.00       0.00          0          0          0
  mutation         :       0.00       0.00          0          0          0
  nlpdiving        :       0.00       0.00          0          0          0
  objpscostdiving  :       0.00       0.00          0          0          0
  octane           :       0.00       0.00          0          0          0
  ofins            :       0.00       0.00          0          0          0
  oneopt           :       0.08       0.00          3          1          1
  padm             :       0.00       0.00          0          0          0
  proximity        :       0.00       0.00          0          0          0
  pscostdiving     :       0.00       0.00          0          0          0
  randrounding     :       0.24       0.00          3          0          0
  rens             :       0.00       0.00          0          0          0
  reoptsols        :       0.00       0.00          0          0          0
  repair           :       0.00       0.00          0          0          0
  rins             :       0.00       0.00          0          0          0
  rootsoldiving    :       0.00       0.00          0          0          0
  rounding         :      27.33       0.00         34          0          0
  shiftandpropagate:       0.00       0.00          0          0          0
  shifting         :       4.32       0.00          4          1          1
  simplerounding   :       0.00       0.00         34          0          0
  subnlp           :       0.00       0.00          0          0          0
  trivial          :       0.03       0.00          2          1          1
  trivialnegation  :       0.00       0.00          0          0          0
  trustregion      :       0.00       0.00          0          0          0
  trysol           :       0.00       0.00          0          0          0
  twoopt           :       0.00       0.00          0          0          0
  undercover       :       0.00       0.00          0          0          0
  vbounds          :       2.60       0.00          1          1          1
  veclendiving     :       0.00       0.00          0          0          0
  zeroobj          :       0.00       0.00          0          0          0
  zirounding       :       1.11       0.00         30          0          0
  other solutions  :          -          -          -          0          -
Diving (single)    :      Calls      Nodes   LP Iters Backtracks  Conflicts   MinDepth   MaxDepth   AvgDepth  RoundSols  NLeafSols  MinSolDpt  MaxSolDpt  AvgSolDpt
  actconsdiving    :          0          -          -          -          -          -          -          -          -          -          -          -          -
  coefdiving       :          0          -          -          -          -          -          -          -          -          -          -          -          -
  conflictdiving   :          1        109      14439          6        396        104        104      104.0          0          -          -          -          -
  distributiondivin:          0          -          -          -          -          -          -          -          -          -          -          -          -
  farkasdiving     :          1        646      82385          0          0        647        647      647.0          0          1        647        647      647.0
  fracdiving       :          0          -          -          -          -          -          -          -          -          -          -          -          -
  guideddiving     :          0          -          -          -          -          -          -          -          -          -          -          -          -
  linesearchdiving :          0          -          -          -          -          -          -          -          -          -          -          -          -
  pscostdiving     :          0          -          -          -          -          -          -          -          -          -          -          -          -
  veclendiving     :          0          -          -          -          -          -          -          -          -          -          -          -          -
Diving (adaptive)  :      Calls      Nodes   LP Iters Backtracks  Conflicts   MinDepth   MaxDepth   AvgDepth  RoundSols  NLeafSols  MinSolDpt  MaxSolDpt  AvgSolDpt
  actconsdiving    :          0          -          -          -          -          -          -          -          -          -          -          -          -
  coefdiving       :          0          -          -          -          -          -          -          -          -          -          -          -          -
  conflictdiving   :          0          -          -          -          -          -          -          -          -          -          -          -          -
  distributiondivin:          0          -          -          -          -          -          -          -          -          -          -          -          -
  farkasdiving     :          0          -          -          -          -          -          -          -          -          -          -          -          -
  fracdiving       :          0          -          -          -          -          -          -          -          -          -          -          -          -
  guideddiving     :          0          -          -          -          -          -          -          -          -          -          -          -          -
  linesearchdiving :          0          -          -          -          -          -          -          -          -          -          -          -          -
  pscostdiving     :          0          -          -          -          -          -          -          -          -          -          -          -          -
  veclendiving     :          0          -          -          -          -          -          -          -          -          -          -          -          -
Neighborhoods      :      Calls  SetupTime  SolveTime SolveNodes       Sols       Best       Exp3  EpsGreedy        UCB TgtFixRate  Opt  Inf Node Stal  Sol  Usr Othr Actv
  rens             :          0       0.00       0.00          0          0          0    0.00000   -1.00000    1.00000      0.900    0    0    0    0    0    0    0    1
  rins             :          0       0.00       0.00          0          0          0    0.00000   -1.00000    1.00000      0.900    0    0    0    0    0    0    0    1
  mutation         :          0       0.00       0.00          0          0          0    0.00000   -1.00000    1.00000      0.900    0    0    0    0    0    0    0    1
  localbranching   :          1       0.56       0.48          0          0          0    0.00000   -1.00000    1.00000      0.700    0    1    0    0    0    0    0    1
  crossover        :          0       0.00       0.00          0          0          0    0.00000   -1.00000    1.00000      0.900    0    0    0    0    0    0    0    1
  proximity        :          0       0.00       0.00          0          0          0    0.00000   -1.00000    1.00000      0.900    0    0    0    0    0    0    0    1
  zeroobjective    :          0       0.00       0.00          0          0          0    0.00000   -1.00000    1.00000      0.900    0    0    0    0    0    0    0    1
  dins             :          0       0.00       0.00          0          0          0    0.00000   -1.00000    1.00000      0.900    0    0    0    0    0    0    0    1
  trustregion      :          0       0.00       0.00          0          0          0    0.00000   -1.00000    1.00000      0.900    0    0    0    0    0    0    0    0
LP                 :       Time      Calls Iterations  Iter/call   Iter/sec  Time-0-It Calls-0-It    ItLimit
  primal LP        :       0.00          0          0       0.00          -       0.00          0
  dual LP          :     787.67         35      88529    2603.79     112.39       0.02          1
  lex dual LP      :       0.00          0          0       0.00          -
  barrier LP       :       0.00          0          0       0.00          -       0.00          0
  resolve instable :       0.00          0          0       0.00          -
  diving/probing LP:    3046.65        653     129708     198.63      42.57
  strong branching :    2774.12        200     171064     855.32      61.66          -          -        290
    (at root node) :          -         27      25347     938.78          -
  conflict analysis:       3.41         16        160      10.00      46.92
B&B Tree           :
  number of runs   :          1
  nodes            :         32 (30 internal, 2 leaves)
  feasible leaves  :          0
  infeas. leaves   :          0
  objective leaves :          1
  nodes (total)    :         32 (30 internal, 2 leaves)
  nodes left       :         30
  max depth        :         29
  max depth (total):         29
  backtracks       :          0 (0.0%)
  early backtracks :          0 (0.0%)
  nodes exc. ref.  :          0 (0.0%)
  delayed cutoffs  :          0
  repropagations   :          0 (0 domain reductions, 0 cutoffs)
  avg switch length:       1.06
  switching time   :       0.01
Estim. Tree Size   :        511
Estimation Tree    : 61 nodes (31 visited, 30 inner, 1 leaves, 30 open), weight: 0.0039 completed 0.1118
Estimations        :      estim      value      trend resolution     smooth
  wbe              :        511          -          -          -          -
  tree-profile     :         -1          -          -          -          -
  gap              :          2    0.61538    0.61538          1          2
  tree-weight      :        511    0.00391    0.00391          1        511
  leaf-frequency   :          3    0.01613    0.55000          1          3
  ssg              :         10    0.82572   -0.17428          1         10
  open-nodes       :         62   30.00000    9.00000          1         20
Root Node          :
  First LP value   : -8.83409165118325e+04
  First LP Iters   :      58001 (636.46 Iter/sec)
  First LP Time    :      91.13
  Final Dual Bound : -8.73913351822704e+04
  Final Root Iters :      58001
  Root LP Estimate : -4.94470086280362e+04
Solution           :
  Solutions found  :          5 (5 improvements)
  First Solution   : +0.00000000000000e+00   (in run 1, after 0 nodes, 0.31 seconds, depth 0, found by <trivial>)
  Gap First Sol.   :   infinite
  Gap Last Sol.    :      66.78 %
  Primal Bound     : -5.29670000000000e+04   (in run 1, after 1 nodes, 2048.94 seconds, depth 647, found by <farkasdiving>)
  Dual Bound       : -8.60723367476797e+04
  Gap              :      62.50 %
Integrals          :      Total       Avg%
  primal-dual      :  327116.03      45.43
  primal-ref       :          -          - (not evaluated)
  dual-ref         :          -          - (not evaluated)

SCIP> checksol

check best solution
solution is feasible in original problem
Violation          :    absolute    relative
  bounds           : 0.00000e+00 0.00000e+00
  integrality      : 0.00000e+00           -
  LP rows          : 0.00000e+00 0.00000e+00
  constraints      : 0.00000e+00 0.00000e+00

SCIP> write sol /local/tmp/bzfhende-tmpdir/bzfhende.instancegroups_opm2.85_opm2-zz12-s5.scip.M620v2.periodic_report.sol

written solution information to file </local/tmp/bzfhende-tmpdir/bzfhende.instancegroups_opm2.85_opm2-z12-s5.scip.M620v2.periodic_report.sol>

SCIP> quit

Read MPS: 1
MIP has 10800 vars and 319508 constraints
Read SOL: 1
Objective value computed by solver: -52967

Integrality tolerance: 1/10000
Linear tolerance: 1/10000
Objective tolerance: 1/10000

Check SOL: Integrality 1 Constraints 1 Objective 1
Maximum violations: Integrality 0 Constraints 0 Objective 0
@04 1583652256
-----------------------------
So 8. Mär 08:24:16 CET 2020
-----------------------------

=ready=
